m = 4; % number of couriers
n = 7; % number of packages

l = [11, 6, 10, 10]; % maximum carriable weight per courier
s = [6, 6, 6, 5, 3, 3, 4]; % weight of each package

D = % distance matrix 
	 [| 2, 5, 7, 4, 5, 4, 5, 4
	 | 5, 8, 6, 6, 8, 8, 8, 4
	 | 7, 6, 7, 6, 2, 7, 4, 5
	 | 4, 6, 6, 3, 6, 2, 5, 5
	 | 5, 8, 2, 6, 6, 4, 5, 8
	 | 4, 8, 7, 2, 4, 5, 6, 5
	 | 5, 8, 4, 5, 5, 6, 6, 8
	 | 8, 5, 5, 7, 3, 5, 7, 3
	 |];